p cnf 69 185
1 2 3 4 5 0
6 7 8 9 10 0
11 12 13 14 15 0
-1 -2 16 0
1 -16 0
2 -16 0
-6 -7 17 0
6 -17 0
7 -17 0
-11 -12 18 0
11 -18 0
12 -18 0
16 17 18 0
-1 -3 19 0
1 -19 0
3 -19 0
-6 -8 20 0
6 -20 0
8 -20 0
-11 -13 21 0
11 -21 0
13 -21 0
19 20 21 0
-1 -4 22 0
1 -22 0
4 -22 0
-6 -9 23 0
6 -23 0
9 -23 0
-11 -14 24 0
11 -24 0
14 -24 0
22 23 24 0
-3 -2 25 0
3 -25 0
2 -25 0
-8 -7 26 0
8 -26 0
7 -26 0
-13 -12 27 0
13 -27 0
12 -27 0
25 26 27 0
-3 -4 28 0
3 -28 0
4 -28 0
-8 -9 29 0
8 -29 0
9 -29 0
-13 -14 30 0
13 -30 0
14 -30 0
28 29 30 0
-4 -5 31 0
4 -31 0
5 -31 0
-9 -10 32 0
9 -32 0
10 -32 0
-14 -15 33 0
14 -33 0
15 -33 0
31 32 33 0
-4 -2 34 0
4 -34 0
2 -34 0
-9 -7 35 0
9 -35 0
7 -35 0
-14 -12 36 0
14 -36 0
12 -36 0
34 35 36 0
-5 -3 37 0
5 -37 0
3 -37 0
-10 -8 38 0
10 -38 0
8 -38 0
-15 -13 39 0
15 -39 0
13 -39 0
37 38 39 0
-1 6 40 0
1 -40 0
-6 -40 0
-2 7 41 0
2 -41 0
-7 -41 0
-3 8 42 0
3 -42 0
-8 -42 0
-4 9 43 0
4 -43 0
-9 -43 0
-5 10 44 0
5 -44 0
-10 -44 0
40 41 42 43 44 0
-1 11 45 0
1 -45 0
-11 -45 0
-2 12 46 0
2 -46 0
-12 -46 0
-3 13 47 0
3 -47 0
-13 -47 0
-4 14 48 0
4 -48 0
-14 -48 0
-5 15 49 0
5 -49 0
-15 -49 0
45 46 47 48 49 0
-6 1 50 0
6 -50 0
-1 -50 0
-7 2 51 0
7 -51 0
-2 -51 0
-8 3 52 0
8 -52 0
-3 -52 0
-9 4 53 0
9 -53 0
-4 -53 0
-10 5 54 0
10 -54 0
-5 -54 0
50 51 52 53 54 0
-6 11 55 0
6 -55 0
-11 -55 0
-7 12 56 0
7 -56 0
-12 -56 0
-8 13 57 0
8 -57 0
-13 -57 0
-9 14 58 0
9 -58 0
-14 -58 0
-10 15 59 0
10 -59 0
-15 -59 0
55 56 57 58 59 0
-11 1 60 0
11 -60 0
-1 -60 0
-12 2 61 0
12 -61 0
-2 -61 0
-13 3 62 0
13 -62 0
-3 -62 0
-14 4 63 0
14 -63 0
-4 -63 0
-15 5 64 0
15 -64 0
-5 -64 0
60 61 62 63 64 0
-11 6 65 0
11 -65 0
-6 -65 0
-12 7 66 0
12 -66 0
-7 -66 0
-13 8 67 0
13 -67 0
-8 -67 0
-14 9 68 0
14 -68 0
-9 -68 0
-15 10 69 0
15 -69 0
-10 -69 0
65 66 67 68 69 0
-1 -5 0
-6 -10 0
-11 -15 0
-2 -5 0
-7 -10 0
-12 -15 0
